* ENCODING=ISO-8859-1
NAME          CPLEX
ROWS
 N  obj1    
 G  c1      
 G  c2      
 G  c3      
 G  c4      
 G  c5      
 G  c6      
 G  c7      
 G  c8      
 G  c9      
 G  c10     
 G  c11     
 G  c12     
 G  c13     
 G  c14     
 G  c15     
 G  c16     
 G  c17     
 G  c18     
 G  c19     
 G  c20     
 G  c21     
 G  c22     
 G  c23     
 G  c24     
 G  c25     
 G  c26     
 G  c27     
 G  c28     
 G  c29     
 G  c30     
 G  c31     
 G  c32     
 G  c33     
 G  c34     
 G  c35     
 G  c36     
 G  c37     
 G  c38     
 G  c39     
 G  c40     
 G  c41     
 G  c42     
 G  c43     
 G  c44     
 G  c45     
 G  c46     
 G  c47     
 G  c48     
 G  c49     
 G  c50     
COLUMNS
    MARK0000  'MARKER'                 'INTORG'
    x1        obj1                            1
    x1        c2                            128
    x1        c5                            748
    x1        c12                           360
    x1        c14                           794
    x1        c18                           753
    x1        c25                           958
    x1        c31                           391
    x1        c39                           728
    x1        c40                           247
    x2        obj1                            1
    x2        c5                            625
    x2        c16                           318
    x2        c21                           613
    x2        c25                           682
    x2        c29                           325
    x2        c44                           193
    x2        c50                           945
    x3        obj1                            1
    x3        c2                            262
    x3        c16                           270
    x3        c23                           627
    x3        c26                           797
    x3        c41                           426
    x3        c47                           838
    x4        obj1                            1
    x4        c4                            192
    x4        c26                           794
    x4        c41                           641
    x4        c46                           735
    x4        c48                           503
    x5        obj1                            1
    x5        c16                           607
    x5        c17                           517
    x5        c20                           105
    x5        c25                           826
    x5        c28                           313
    x5        c30                           577
    x5        c36                           753
    x6        obj1                            1
    x6        c8                            435
    x6        c36                           677
    x6        c44                           437
    x7        obj1                            1
    x7        c5                            980
    x7        c7                            784
    x7        c12                           738
    x7        c24                           237
    x7        c31                           369
    x7        c40                           425
    x8        obj1                            1
    x8        c10                           422
    x8        c13                           723
    x8        c15                           228
    x8        c20                           414
    x8        c23                           136
    x8        c49                           713
    x9        obj1                            1
    x9        c3                            251
    x9        c30                           938
    x9        c36                           285
    x9        c38                           163
    x9        c42                           234
    x9        c49                           152
    x10       obj1                            1
    x10       c5                            934
    x10       c8                            301
    x10       c12                           854
    x10       c17                           899
    x10       c19                           848
    x10       c27                           841
    x10       c48                           374
    x11       obj1                            1
    x11       c4                            118
    x11       c9                            201
    x11       c15                           493
    x11       c47                           789
    x12       obj1                            1
    x12       c7                            776
    x12       c8                            640
    x12       c15                           921
    x12       c20                           211
    x12       c21                           143
    x12       c43                           399
    x13       obj1                            1
    x13       c14                           324
    x13       c26                           461
    x13       c33                           612
    x13       c45                           553
    x13       c46                           762
    x14       obj1                            1
    x14       c13                           488
    x14       c23                           936
    x15       obj1                            1
    x15       c16                           601
    x15       c38                           364
    x15       c41                           291
    x15       c47                           456
    x16       obj1                            1
    x16       c18                           468
    x16       c23                           954
    x16       c27                           107
    x16       c31                           519
    x16       c37                           358
    x16       c42                           529
    x16       c46                           238
    x17       obj1                            1
    x17       c2                            551
    x17       c27                           268
    x17       c30                           461
    x17       c32                           831
    x17       c36                           232
    x17       c46                           277
    x18       obj1                            1
    x18       c20                           437
    x18       c28                           123
    x18       c34                           708
    x18       c41                           418
    x18       c46                           847
    x19       obj1                            1
    x19       c36                           313
    x20       obj1                            1
    x20       c10                           749
    x20       c13                           691
    x20       c24                           525
    x20       c30                           169
    x20       c31                           584
    x20       c32                           307
    x21       obj1                            1
    x21       c7                            977
    x21       c10                           285
    x21       c27                           459
    x21       c38                           428
    x21       c42                           275
    x21       c43                           769
    x22       obj1                            1
    x22       c6                            895
    x22       c10                           638
    x22       c19                           513
    x22       c25                           671
    x22       c32                           756
    x22       c38                           835
    x22       c46                           300
    x22       c50                           909
    x23       obj1                            1
    x23       c3                            267
    x23       c4                            417
    x23       c21                           287
    x23       c37                           538
    x24       obj1                            1
    x24       c16                           902
    x24       c24                           602
    x24       c28                           521
    x24       c42                           292
    x25       obj1                            1
    x25       c2                            493
    x25       c9                            880
    x25       c21                           317
    x25       c35                           620
    x25       c37                           500
    x26       obj1                            1
    x26       c11                           243
    x26       c31                          1000
    x26       c34                           508
    x26       c47                           216
    x27       obj1                            1
    x27       c19                           268
    x27       c22                           289
    x27       c27                           562
    x28       obj1                            1
    x28       c6                            417
    x28       c15                           201
    x28       c33                           530
    x28       c34                           958
    x29       obj1                            1
    x29       c1                            806
    x29       c33                           532
    x29       c36                           717
    x30       obj1                            1
    x30       c3                            212
    x30       c21                           716
    x30       c27                           509
    x30       c35                           658
    x30       c36                           785
    x31       obj1                            1
    x31       c19                           265
    x31       c32                           707
    x31       c38                           447
    x32       obj1                            1
    x32       c15                           386
    x32       c16                           543
    x32       c17                           431
    x32       c25                           372
    x32       c50                           513
    x33       obj1                            1
    x33       c1                            458
    x33       c5                            845
    x33       c20                           536
    x33       c44                           144
    x33       c45                           997
    x33       c49                           433
    x34       obj1                            1
    x34       c6                            940
    x34       c25                           162
    x34       c41                           840
    x35       obj1                            1
    x35       c26                           971
    x36       obj1                            1
    x37       obj1                            1
    x37       c13                           118
    x37       c19                           988
    x37       c22                           423
    x37       c26                           504
    x37       c33                           901
    x37       c35                           848
    x37       c49                           188
    x37       c50                           918
    x38       obj1                            1
    x38       c9                            424
    x38       c14                           331
    x38       c16                           462
    x39       obj1                            1
    x39       c5                            234
    x39       c6                            922
    x39       c9                            218
    x39       c20                           570
    x39       c24                           180
    x39       c48                           814
    x40       obj1                            1
    x40       c6                            513
    x40       c8                            625
    x40       c10                           577
    x40       c11                           356
    x40       c23                           952
    x40       c50                           505
    x41       obj1                            1
    x41       c5                            234
    x41       c10                           946
    x41       c15                           639
    x41       c27                           129
    x41       c29                           978
    x41       c31                           954
    x41       c35                           612
    x42       obj1                            1
    x42       c11                           553
    x42       c18                           729
    x42       c26                           495
    x42       c29                           585
    x42       c45                           754
    x43       obj1                            1
    x43       c7                            621
    x43       c39                           781
    x43       c41                           757
    x43       c43                           310
    x43       c47                           349
    x44       obj1                            1
    x44       c24                           656
    x44       c43                           544
    x44       c49                           105
    x44       c50                           185
    x45       obj1                            1
    x45       c11                           448
    x45       c17                           410
    x45       c22                           189
    x45       c44                           908
    x45       c47                           664
    x46       obj1                            1
    x46       c24                           786
    x46       c37                           111
    x46       c46                           129
    x46       c47                           861
    x47       obj1                            1
    x47       c21                           329
    x47       c25                           436
    x47       c26                           342
    x47       c35                           224
    x48       obj1                            1
    x48       c1                            587
    x48       c2                            891
    x48       c3                            716
    x48       c6                            756
    x48       c12                           940
    x48       c17                           478
    x48       c35                           114
    x48       c39                           365
    x49       obj1                            1
    x49       c2                            811
    x49       c10                           224
    x49       c11                           799
    x49       c18                           619
    x49       c31                           254
    x49       c33                           983
    x49       c37                           987
    x50       obj1                            1
    x50       c3                            777
    x50       c8                            196
    x50       c11                           976
    x50       c13                           525
    x50       c20                           826
    x50       c38                           916
    x50       c40                           214
    x50       c45                           617
    x50       c50                           606
    MARK0001  'MARKER'                 'INTEND'
RHS
    rhs       c1                            926
    rhs       c2                           1568
    rhs       c3                           1112
    rhs       c4                            364
    rhs       c5                           2300
    rhs       c6                           2222
    rhs       c7                           1579
    rhs       c8                           1099
    rhs       c9                            862
    rhs       c10                          1921
    rhs       c11                          1688
    rhs       c12                          1446
    rhs       c13                          1273
    rhs       c14                           725
    rhs       c15                          1434
    rhs       c16                          1852
    rhs       c17                          1368
    rhs       c18                          1285
    rhs       c19                          1441
    rhs       c20                          1550
    rhs       c21                          1203
    rhs       c22                           451
    rhs       c23                          1803
    rhs       c24                          1493
    rhs       c25                          2054
    rhs       c26                          2182
    rhs       c27                          1438
    rhs       c28                           479
    rhs       c29                           944
    rhs       c30                          1073
    rhs       c31                          2036
    rhs       c32                          1301
    rhs       c33                          1779
    rhs       c34                          1087
    rhs       c35                          1538
    rhs       c36                          1881
    rhs       c37                          1247
    rhs       c38                          1577
    rhs       c39                           937
    rhs       c40                           443
    rhs       c41                          1687
    rhs       c42                           665
    rhs       c43                          1011
    rhs       c44                           841
    rhs       c45                          1461
    rhs       c46                          1644
    rhs       c47                          2087
    rhs       c48                           846
    rhs       c49                           796
    rhs       c50                          2291
BOUNDS
 LI bnd       x1        0
 LI bnd       x2        0
 LI bnd       x3        0
 LI bnd       x4        0
 LI bnd       x5        0
 LI bnd       x6        0
 LI bnd       x7        0
 LI bnd       x8        0
 LI bnd       x9        0
 LI bnd       x10       0
 LI bnd       x11       0
 LI bnd       x12       0
 LI bnd       x13       0
 LI bnd       x14       0
 LI bnd       x15       0
 LI bnd       x16       0
 LI bnd       x17       0
 LI bnd       x18       0
 LI bnd       x19       0
 LI bnd       x20       0
 LI bnd       x21       0
 LI bnd       x22       0
 LI bnd       x23       0
 LI bnd       x24       0
 LI bnd       x25       0
 LI bnd       x26       0
 LI bnd       x27       0
 LI bnd       x28       0
 LI bnd       x29       0
 LI bnd       x30       0
 LI bnd       x31       0
 LI bnd       x32       0
 LI bnd       x33       0
 LI bnd       x34       0
 LI bnd       x35       0
 LI bnd       x36       0
 LI bnd       x37       0
 LI bnd       x38       0
 LI bnd       x39       0
 LI bnd       x40       0
 LI bnd       x41       0
 LI bnd       x42       0
 LI bnd       x43       0
 LI bnd       x44       0
 LI bnd       x45       0
 LI bnd       x46       0
 LI bnd       x47       0
 LI bnd       x48       0
 LI bnd       x49       0
 LI bnd       x50       0
ENDATA
